# vtk DataFile Version 4.2
vtk output
ASCII
DATASET UNSTRUCTURED_GRID
POINTS 29 float
2.12969 0.748564 0 1.78302 0.453 0 2 0 0 
2.417 0 0 1.165 0.812831 0 1.36939 1.30442 0 
0 1.583 0 0 1 0 2.83277 1.348 0 
3.25 0 0 1.783 2.29921 0 0 2.75 0 
1.95635 0.600782 0 1.945 0.232905 0 2.2085 0 0 
2.34407 0.385927 0 1.2672 1.05862 0 0.716965 1.51175 0 
0 1.2915 0 0.611832 0.952058 0 2.48123 1.04828 0 
2.8335 0 0 3.14396 0.696732 0 1.5762 1.80181 0 
1.80027 1.05625 0 2.37534 1.87691 0 0.930446 2.63489 0 
0 2.1665 0 1.5173 0.651501 0 
CELLS 6 54
8 0 1 2 3 12 13 14 15 
8 4 5 6 7 16 17 18 19 
8 8 0 3 9 20 15 21 22 
8 10 5 0 8 23 24 20 25 
8 5 10 11 6 23 26 27 17 
8 5 4 1 0 16 28 12 24 

CELL_TYPES 6
23
23
23
23
23
23

POINT_DATA 29
FIELD FieldData 13
Displacement 3 29 double
-3.53645e-05 0.000139595 -5.29396e-23 -8.30682e-05 0.000210292 -1.16467e-21 -9.05772e-05 0 8.47033e-22 
-0.000104753 0 2.11758e-22 -4.71345e-05 0.000413268 1.11173e-21 3.64335e-05 0.00037649 5.29396e-23 
0 0.000545407 -5.02926e-22 0 0.000542945 -1.92899e-21 6.91933e-05 5.54706e-05 2.11758e-22 
-7.28154e-05 0 -1.45584e-22 0.000174113 0.00032903 -4.23516e-22 0 0.000545337 1.05879e-21 
-5.50693e-05 0.000162317 -7.15743e-20 -9.50111e-05 9.84651e-05 6.05629e-20 -0.000107395 0 2.96462e-21 
-8.28179e-05 5.44294e-05 -5.0822e-21 6.47493e-07 0.000393094 1.4696e-19 3.15738e-05 0.000498208 -3.32249e-19 
0 0.000545881 -1.94447e-19 -2.09295e-05 0.000511477 -1.46113e-19 9.07316e-06 0.000103624 -4.87044e-20 
-8.95437e-05 0 -6.03511e-21 -2.7109e-05 -4.14558e-08 2.95403e-20 0.000100527 0.000351728 -1.6263e-19 
1.10014e-05 0.00025295 1.60936e-20 0.000148188 0.000178088 5.10337e-20 0.000118801 0.000481356 3.53213e-19 
0 0.0005442 2.29334e-19 -6.36321e-05 0.000317086 -5.44219e-20 
Displacement%20Magnitude 1 29 double
0.0001440049023 0.00022610407143 9.05772e-05 0.000104753 0.00041594723333 0.00037824875416 0.000545407 0.000542945 8.8683145125e-05 
7.28154e-05 0.00037225807939 0.000545337 0.00017140430651 0.00013683013207 0.000107395 9.9102795847e-05 0.00039309453327 0.00049920748804 
0.000545881 0.00051190503563 0.00010402045764 8.95437e-05 2.7109031698e-05 0.00036581178728 0.00025318912556 0.00023167869796 0.00049579963326 
0.0005442 0.00032340775431 
Tresca%20Stress 1 29 double
15.98792795 24.259675969 43.260918934 13.595521158 3.4774583474 10.931885227 6.1360124945 3.946301857 5.6635732816 
7.096055336 13.222653083 17.161075033 18.405063126 32.181996472 27.64152486 14.289600111 6.7878897547 6.9891702094 
1.5683242504 1.1104093731 10.214544264 7.4746966795 5.1032014864 11.490845378 12.574211511 8.7959044348 14.797499825 
11.620736665 12.056394839 
Stress%20xx%20component 1 29 double
3.56333 21.2059 2.16076 19.2888 5.8465 8.81417 12.2737 -7.60569 8.40686 
10.1928 21.229 34.2749 11.9299 13.0768 11.9474 10.84 7.41845 10.9246 
2.40336 -2.08085 6.43983 13.5182 9.27358 14.9335 6.39416 14.1354 28.4608 
23.205 13.334 
Stress%20xy%20component 1 29 double
-3.9139 -24.1689 -7.47791 2.79133 -1.88836 -10.9183 -0.315416 1.47959 1.54359 
2.13607 -7.67617 -1.2366 -13.9051 -16.9299 -1.79529 0.239506 -6.63599 -5.27881 
0.594977 -0.323232 -1.32151 1.9157 2.50012 -9.06452 -8.55489 -3.68145 -4.50152 
-0.788899 -11.8033 
Stress%20xz%20component 1 29 double
7.09502e-16 -3.98015e-14 1.23235e-14 3.18634e-14 4.0426e-14 1.22749e-14 -5.36186e-14 -3.61239e-14 2.45012e-14 
-3.43753e-14 -1.91535e-15 1.87313e-14 -5.60663e-15 -2.47302e-14 1.59872e-14 1.28231e-14 2.27873e-14 8.63892e-16 
-4.22301e-14 1.60913e-14 -1.33921e-15 4.82947e-15 -6.89726e-15 8.74301e-15 -1.15602e-14 3.19605e-14 -1.02891e-14 
-2.00812e-14 -2.65066e-15 
Stress%20yy%20component 1 29 double
31.3838 25.3993 85.5512 26.4514 0.00635854 9.90383 0.38194 -1.12483 10.4843 
-3.34104 15.0001 9.29568 29.0094 59.1558 55.4126 28.4262 4.56252 4.88921 
-0.498807 0.0437959 20.3162 12.1439 2.75306 12.8445 21.3889 13.8122 11.8965 
4.96617 8.41922 
Stress%20yz%20component 1 29 double
-1.0162e-14 -6.05072e-15 8.43076e-15 -8.05953e-15 1.22957e-13 -1.30973e-13 1.96732e-13 4.78645e-14 5.48728e-14 
-9.07304e-15 -1.73715e-14 -1.40166e-14 -1.04361e-14 -1.32394e-14 -4.34722e-15 -5.32907e-15 -7.95891e-15 4.84612e-14 
-9.63118e-15 2.51882e-14 2.46816e-14 -4.0315e-15 2.13284e-14 -7.02216e-14 -8.99072e-14 -3.29667e-14 3.75949e-14 
2.23266e-13 1.33102e-13 
Stress%20zz%20component 1 29 double
-0.0519189 0.103723 -0.305375 0.219678 0.14561 -0.0852511 0.0100352 -0.034899 -0.0210265 
0.106909 -0.0468329 0.0138187 -0.0224146 0.343216 0.203577 -0.149739 -0.067672 0.00905125 
0.00190913 -0.035762 0.0118437 -0.0831329 -0.084568 0.0318094 0.118374 0.0669862 0.0100861 
-0.00241404 -0.228259 
Major%20Principal%20Stress 1 29 double
31.923937001 47.562275969 86.216462868 27.410720317 6.4038876174 20.290885227 12.282060189 -0.034899 11.306120063 
10.521935336 26.398473266 34.335968767 36.787711652 64.707208944 55.486626721 28.429461221 12.778374755 13.987391669 
2.5206007504 0.091882323124 20.440932228 14.866260459 10.121834973 23.013500155 25.266797022 17.65879507 29.605085749 
23.23905929 22.933004839 
Intermediate%20Principal%20Stress 1 29 double
3.0231929991 0.103723 1.4954971319 18.329479683 0.14561 -0.0852511 0.37357981107 -0.80301728606 7.5850399369 
0.106909 9.8306267343 9.234611233 4.1515883482 7.5253910557 11.873373279 10.836738779 -0.067672 1.8264183312 
0.00190913 -0.035762 6.3150977717 10.795839541 1.9048050272 4.7644998449 2.5162629777 10.28880493 10.752214251 
4.9321107102 -0.228259 
Minor%20Principal%20Stress 1 29 double
-0.0519189 -0.95707596857 -0.305375 0.219678 -0.55102907739 -1.5728852271 0.0100352 -7.9275027139 -0.0210265 
-3.670175336 -0.0468329 0.0138187 -0.0224146 0.343216 0.203577 -0.149739 -0.79740475465 0.00905125 
-0.61604775043 -2.1289364231 0.0118437 -0.0831329 -0.084568 0.0318094 0.118374 0.0669862 0.0100861 
-0.00241404 -1.1797848385 
von%20Mises%20Stress 1 29 double
30.55457967 47.997745034 85.635604756 23.976932985 6.6340866354 21.159211297 12.094351304 7.5379536911 10.00007333 
12.730969032 23.145323131 30.766143325 34.910773692 61.090373723 50.470365599 24.969754326 13.226020119 13.164081747 
2.8778674399 2.1598273244 18.119297297 13.386648752 9.3714419332 21.018830618 24.039341207 15.301537049 25.948873628 
21.209195922 23.651386535 
