# vtk DataFile Version 4.2
vtk output
ASCII
DATASET UNSTRUCTURED_GRID
POINTS 111 float
2.12969 0.748564 0.3 2.417 0 0.3 3.25 0 0.3 
2.83277 1.348 0.3 2.417 0 0 3.25 0 0 
2.83277 1.348 0 2.12969 0.748564 0 1.36939 1.30442 0.3 
1.165 0.812831 0.3 1.78302 0.453 0.3 1.165 0.812831 0 
1.78302 0.453 0 1.36939 1.30442 0 1.783 2.29921 0.3 
1.783 2.29921 0 0 1.583 0.3 0 1 0.3 
0 1.583 0 0 1 0 0 2.75 0.3 
0 2.75 0 2.12969 0.748564 0.6 2.417 0 0.6 
3.25 0 0.6 2.83277 1.348 0.6 1.36939 1.30442 0.6 
1.165 0.812831 0.6 1.78302 0.453 0.6 1.783 2.29921 0.6 
0 1.583 0.6 0 1 0.6 0 2.75 0.6 
2 0 0.3 2 0 0 2 0 0.6 
2.48123 1.04828 0 3.14396 0.696732 0 2.8335 0 0 
2.34407 0.385927 0 2.34407 0.385927 0.3 2.8335 0 0.3 
3.14396 0.696732 0.3 2.48123 1.04828 0.3 2.417 0 0.15 
2.12969 0.748564 0.15 3.25 0 0.15 2.83277 1.348 0.15 
1.80027 1.05625 0 1.95635 0.600782 0 1.5173 0.651501 0 
1.2672 1.05862 0 1.2672 1.05862 0.3 1.5173 0.651501 0.3 
1.95635 0.600782 0.3 1.80027 1.05625 0.3 1.165 0.812831 0.15 
1.36939 1.30442 0.15 1.78302 0.453 0.15 1.5762 1.80181 0 
2.37534 1.87691 0 2.37534 1.87691 0.3 1.5762 1.80181 0.3 
1.783 2.29921 0.15 0.611832 0.952058 0 0 1.2915 0 
0.716965 1.51175 0 0.716965 1.51175 0.3 0 1.2915 0.3 
0.611832 0.952058 0.3 0 1.583 0.15 0 1 0.15 
0 2.1665 0 0.930446 2.63489 0 0.930446 2.63489 0.3 
0 2.1665 0.3 0 2.75 0.15 2.34407 0.385927 0.6 
2.8335 0 0.6 3.14396 0.696732 0.6 2.48123 1.04828 0.6 
2.417 0 0.45 2.12969 0.748564 0.45 3.25 0 0.45 
2.83277 1.348 0.45 1.2672 1.05862 0.6 1.5173 0.651501 0.6 
1.95635 0.600782 0.6 1.80027 1.05625 0.6 1.165 0.812831 0.45 
1.36939 1.30442 0.45 1.78302 0.453 0.45 2.37534 1.87691 0.6 
1.5762 1.80181 0.6 1.783 2.29921 0.45 0.716965 1.51175 0.6 
0 1.2915 0.6 0.611832 0.952058 0.6 0 1.583 0.45 
0 1 0.45 0.930446 2.63489 0.6 0 2.1665 0.6 
0 2.75 0.45 1.945 0.232905 0 2 0 0.15 
1.945 0.232905 0.3 2.2085 0 0.3 2.2085 0 0 
2 0 0.45 1.945 0.232905 0.6 2.2085 0 0.6 

CELLS 12 252
20 3 0 1 2 6 7 4 5 43 40 41 42 36 39 38 37 47 45 44 46 
20 0 8 9 10 7 13 11 12 55 52 53 54 48 51 50 49 45 57 56 58 
20 14 8 0 3 15 13 7 6 62 55 43 61 59 48 36 60 63 57 45 47 
20 9 8 16 17 11 13 18 19 52 67 68 69 51 66 65 64 56 57 70 71 
20 20 16 8 14 21 18 13 15 75 67 62 74 72 66 59 73 76 70 57 63 
20 25 22 23 24 3 0 1 2 80 77 78 79 43 40 41 42 84 82 81 83 
20 22 26 27 28 0 8 9 10 88 85 86 87 55 52 53 54 82 90 89 91 
20 29 26 22 25 14 8 0 3 93 88 80 92 62 55 43 61 94 90 82 84 
20 27 26 30 31 9 8 16 17 85 95 96 97 52 67 68 69 89 90 98 99 
20 32 30 26 29 20 16 8 14 101 95 93 100 75 67 62 74 102 98 90 94 
20 7 0 1 4 12 10 33 34 45 40 44 39 58 105 104 103 49 54 106 107 
20 23 1 0 22 35 33 10 28 81 40 82 77 108 105 91 109 110 106 54 87 

CELL_TYPES 12
25
25
25
25
25
25
25
25
25
25
25
25

POINT_DATA 111
FIELD FieldData 13
Displacement 3 111 double
-3.14866e-07 -2.96893e-07 -6.92673e-05 -2.73119e-07 0 -5.79323e-05 0 0 0 
0 0 0 2.3753e-05 0 -6.29236e-05 0 0 -1.12293e-05 
0 0 -1.18223e-05 2.40883e-05 1.13628e-05 -7.45125e-05 -2.53481e-07 -6.54271e-07 -9.65251e-05 
-3.20164e-07 -1.15258e-06 -0.000159735 -5.0944e-07 -6.71764e-07 -0.000116074 2.29059e-05 2.75936e-05 -0.000163132 
2.75052e-05 1.18877e-05 -0.000118439 1.95339e-05 2.52845e-05 -0.000102403 0 0 0 
0 0 -1.33339e-05 0 -8.47996e-07 -0.000118927 0 -1.38881e-06 -0.000197003 
0 3.52854e-05 -0.000125203 0 3.92849e-05 -0.000200981 0 0 0 
0 0 -1.43317e-05 -2.47214e-05 -1.19493e-05 -7.56601e-05 -2.42883e-05 0 -6.403e-05 
0 0 -1.23525e-05 0 0 -1.29777e-05 -2.00469e-05 -2.65944e-05 -0.000103609 
-2.35545e-05 -2.99032e-05 -0.000164355 -2.85365e-05 -1.32132e-05 -0.000119579 0 0 -1.45356e-05 
0 -3.69843e-05 -0.000126433 0 -4.207e-05 -0.000202229 0 0 -1.55549e-05 
-6.12776e-07 0 -9.87704e-05 2.67147e-05 0 -0.000100526 -2.79149e-05 0 -0.000101581 
1.64127e-05 8.9227e-06 -2.91219e-05 0 0 -1.1638e-05 1.62576e-05 0 -2.46196e-05 
2.40365e-05 5.15258e-06 -6.61643e-05 -2.86041e-07 -1.23776e-07 -6.10057e-05 -1.12091e-07 0 -2.70957e-05 
0 0 0 -1.49266e-07 -1.09189e-07 -3.17479e-05 1.07502e-05 0 -6.02608e-05 
1.11538e-05 5.0088e-06 -7.17701e-05 0 0 -5.12391e-06 0 0 -5.34812e-06 
2.30859e-05 1.81946e-05 -8.75108e-05 2.71712e-05 1.07686e-05 -9.33865e-05 2.65369e-05 1.94652e-05 -0.000139104 
2.28923e-05 2.63352e-05 -0.000128612 -2.99451e-07 -8.84899e-07 -0.00013162 -4.32367e-07 -9.46553e-07 -0.000136119 
-4.12304e-07 -4.33871e-07 -9.55179e-05 -3.09651e-07 -4.79909e-07 -8.18896e-05 1.04939e-05 1.28943e-05 -0.000161624 
9.24776e-06 1.15966e-05 -9.94493e-05 1.26938e-05 5.88857e-06 -0.000117448 1.32737e-05 1.96959e-05 -3.93033e-05 
0 0 -1.25369e-05 0 0 0 -1.36646e-07 -2.83908e-07 -4.23797e-05 
0 0 -5.98226e-06 1.34818e-05 3.60571e-05 -0.000189888 0 3.77268e-05 -0.000158191 
1.13561e-05 3.26895e-05 -0.000117993 -1.40525e-07 -8.00927e-07 -0.000111851 0 -1.10875e-06 -0.000161876 
-1.68755e-07 -1.33918e-06 -0.000186136 0 1.64093e-05 -0.000122134 0 1.82934e-05 -0.000199232 
0 2.72918e-05 -4.73689e-05 0 0 -1.36359e-05 0 0 0 
0 -3.90865e-07 -5.07975e-05 0 0 -6.40469e-06 -2.46035e-05 -5.39199e-06 -6.72836e-05 
-1.64788e-05 0 -2.57428e-05 0 0 -1.27725e-05 -1.67155e-05 -9.13361e-06 -3.02753e-05 
-1.12938e-05 0 -6.08137e-05 -1.17836e-05 -5.60217e-06 -7.2344e-05 0 0 -5.68563e-06 
0 0 -5.92584e-06 -2.34995e-05 -2.81078e-05 -0.000129824 -2.74163e-05 -2.13566e-05 -0.000140302 
-2.80067e-05 -1.16193e-05 -9.45297e-05 -2.37121e-05 -1.91512e-05 -8.86887e-05 -1.11361e-05 -1.51992e-05 -0.000162235 
-9.75557e-06 -1.29057e-05 -0.000100053 -1.37131e-05 -7.23068e-06 -0.000118018 0 0 -1.37187e-05 
-1.35522e-05 -2.02621e-05 -4.05036e-05 0 0 -6.58309e-06 -1.16399e-05 -3.42946e-05 -0.000119219 
0 -3.99497e-05 -0.000159429 -1.38229e-05 -3.87399e-05 -0.000191133 0 -1.81058e-05 -0.000122749 
0 -2.10737e-05 -0.000199856 0 0 -1.48499e-05 0 -2.8075e-05 -4.85925e-05 
0 0 -7.01627e-06 2.68622e-05 5.33944e-06 -0.000105137 1.27474e-05 0 -9.9937e-05 
-5.65097e-07 -3.3291e-07 -0.000103195 -3.90508e-07 0 -8.10219e-05 2.56359e-05 0 -7.91443e-05 
-1.39703e-05 0 -0.000100464 -2.79825e-05 -5.98661e-06 -0.000106212 -2.63992e-05 0 -8.02311e-05 

Displacement%20Magnitude 1 111 double
6.9268651895e-05 5.79329438e-05 0 0 6.7257597682e-05 1.12293e-05 1.18223e-05 7.9129464026e-05 9.65276502e-05 
0.00015973947906 0.00011607706178 0.00016702735237 0.00012217057812 0.00010727186769 0 1.33339e-05 0.00011893002323 0.00019700789528 
0.00013008017013 0.00020478443722 0 1.43317e-05 8.0488409852e-05 6.8481840052e-05 1.23525e-05 1.29777e-05 0.00010882998296 
0.0001687056071 0.00012364488557 1.45356e-05 0.00013173132481 0.00020655859542 1.55549e-05 9.8772300827e-05 0.00010401515213 0.00010534676646 
3.4598791253e-05 1.1638e-05 2.9503122918e-05 7.0583404617e-05 6.100649615e-05 2.7095931851e-05 0 3.1748438654e-05 6.1212178663e-05 
7.2804138522e-05 5.12391e-06 5.34812e-06 9.2315450303e-05 9.7853335342e-05 0.00014294412856 0.00013326157249 0.00013162331525 0.00013612297773 
9.5519775225e-05 8.189159166e-05 0.0001624767746 0.00010054931858 0.00011827865623 4.5922423492e-05 1.25369e-05 0 4.2380871251e-05 
5.98226e-06 0.00019375067983 0.0001626275005 0.00012296305326 0.00011185395582 0.00016187979708 0.00018614089389 0.00012323140461 0.00020007008349 
5.4668592761e-05 1.36359e-05 0 5.0799003747e-05 6.40469e-06 7.1843500732e-05 3.05653824e-05 1.27725e-05 3.5769044745e-05 
6.1853504558e-05 7.351116836e-05 5.68563e-06 5.92584e-06 0.00013489457327 0.00014454206679 9.9273599509e-05 9.378015598e-05 0.00016332551432 
0.00010135250884 0.00011903184519 1.37187e-05 4.7273210534e-05 6.58309e-06 0.00012459846236 0.00016435809859 0.00019550876222 0.00012407714131 
0.00020096398077 1.48499e-05 5.6119842135e-05 7.01627e-06 0.000108645645 0.00010074671298 0.00010319708421 8.1022841077e-05 8.319266549e-05 
0.00010143068854 0.0001099993125 8.4462696901e-05 
Tresca%20Stress 1 111 double
2201492.4221 2461390.3459 4198885.8828 4182896.1443 1812275.8411 5832607.5119 6140764.4608 2469291.4478 2033858.8533 
2319844.647 2545305.8149 2913243.3892 2700369.567 2531181.4226 4277064.3763 6887545.7251 2046301.5765 1578829.885 
2276495.2286 3401867.1999 4379267.847 7391853.9971 2594775.1983 1902979.0671 6168137.5126 6508075.3766 2641516.5856 
2885884.8941 2764313.4603 7300154.3363 2299660.5773 3353766.1741 7825308.1591 1458948.0626 3088598.0253 3236940.7007 
3217388.4793 5692153.2477 3055281.7163 1985128.8273 2214715.5161 2203184.0465 4019404.631 2142376.609 1254066.2162 
1448970.1597 3602462.0405 3798037.4672 2282182.4472 2275143.337 2629763.2575 2509431.9585 1623360.6665 2401532.1508 
1823758.4657 2055532.722 1631141.7043 1429989.6649 1697847.9662 3405223.8834 6262418.5297 4064052.9492 2140919.2673 
4215271.9895 3006619.9654 2648554.0698 1979254.863 1986776.1609 1288862.1234 1863404.3727 1343319.9289 1466697.7766 
3486322.2371 6832382.3528 4247289.4432 2187775.8823 4488690.6464 2077349.5314 3397193.0696 6039251.9976 3549566.3657 
1291631.7139 1519408.537 3902598.9585 4123045.9804 2656022.9862 2613983.9102 2464585.445 2380104.1903 1473969.8229 
1467825.7269 1624420.0573 6649532.3587 3723238.6554 4579677.9446 1998302.664 2761441.1999 2944323.1496 1312074.9738 
1366872.4272 7250148.59 3767159.9898 4871625.0645 2716448.8957 1327446.0685 1496489.4973 1657820.0051 2006383.8597 
1406087.1544 2748228.5625 2240219.8473 
Stress%20xx%20component 1 111 double
-130959 -137035 -162355 -144542 -1245370 -11509900 -9547960 -1244580 -184806 
-213805 -166464 3243200 1191550 1576940 -154700 -6009620 -204115 -208620 
4157440 5176960 -173659 -3693290 986948 965823 11185500 9260720 -1947010 
-3674290 -1520310 5701120 -4566330 -5595370 3345790 -175.253 517182 -517122 
-5046240 -10597900 -6262990 -1261620 -131067 -144719 -153699 -140220 -813720 
-765764 -5146170 -4217980 61948.9 -376549 2117490 2208150 -199238 -189382 
-146242 -160495 1415840 623267 444165 -2014420 -7836170 -147455 -169820 
-2505440 4267770 4679120 2988070 -194778 -206787 -208654 1896100 2356840 
220155 -4725140 -166094 -188468 -1379740 999137 5971110 10291500 4767230 
536913 505987 4821590 3929820 -2608370 -2499420 89918.4 -381203 -1845200 
-993108 -775010 7542770 1674780 2196480 -3378250 -5093580 -4686730 -2304670 
-2774660 4393150 -597542 1032330 896555 107447 -86630.4 -73581.8 -478752 
-107592 -1064690 328890 
Stress%20xy%20component 1 111 double
69334.4 -2964.19 -2273.57 23462.1 194372 -150749 -4105790 -1323650 72334.9 
73698.6 176987 -1635600 -1518220 -2407380 39502.1 -4429310 535.273 -3527.62 
-172233 -152186 2206.13 -248994 1460910 -202782 145789 4151620 2553760 
1783730 1871630 4509240 173144 145684 253532 35730.7 -78815 143067 
-2627880 -2100080 -19327.7 -499501 30839.1 -1936.04 9299.11 47043.3 103232 
-617830 -75244.6 -2015520 -1910640 -1507770 -1595850 -2327510 74023 119765 
122515 74737.2 -750339 -1147070 -707716 -3112330 -4311300 32603.5 54912.3 
-2177200 -916076 -143407 -1309810 34878.6 -1806.8 34988.5 -83870.3 -70565.1 
-229416 -2323580 21027.9 1681.33 -123293 558550 14340.5 2117740 2721130 
-110401 755795 70491.4 2061900 2477150 1838400 1751410 2061240 898102 
1292590 1061410 4376620 3223100 2256670 1380060 139979 986211 84861.2 
63786.4 2366150 232773 127768 -757390 -59861.9 112033 15700.4 98917.9 
127719 975138 -72694.1 
Stress%20xz%20component 1 111 double
1674110 2454430 4194680 3426160 -332808 -731317 -346624 -384797 837071 
1126310 372964 932456 1467410 -283313 2006880 -19479.8 55554.3 29922.2 
23999.7 2104.43 -52124.2 -2552.13 -385690 -333617 -730528 -345542 -283307 
931942 1470200 -18910.4 23614.3 1291.26 -1782.91 -1426890 1553720 1552520 
458809 -557071 503158 -358842 2074530 2195480 3827790 1771140 1060850 
644601 1731800 1539880 -332504 -283214 1205780 -144921 1355800 782420 
1802530 1259640 1029490 276826 919612 318097 -187874 2671760 1047860 
993801 466068 35421.8 -131168 432004 65483.7 575423 39765.8 15994.7 
-11645.9 11907 1004780 -21030.3 -27338 -360002 503564 -556345 459047 
1060370 644263 1731960 1540200 -145002 1206320 -282407 -332450 1029020 
276936 922156 -186829 318211 993885 -131546 34828.8 466138 39595.6 
15625.4 12565.3 -11460.3 -26953.7 1505920 64250.4 -557052 1642850 -424766 
61977.5 1506600 -426187 
Stress%20yy%20component 1 111 double
-198402 -240176 -193792 -173341 2300050 -2777510 -5572420 2806960 -71925.3 
-21103.9 -170667 1159440 2632430 1464090 -110034 -11018200 -23387.4 6008.96 
275941 317902 -66744.5 -14604400 -3207860 -2775710 2390710 5223380 -1607110 
-1200620 -2979440 10796900 -321892 -305689 14471500 -455928 4493000 -5379070 
-1513680 -4131260 -222721 2505340 -220347 -218669 -183330 -183309 884637 
1180410 -861727 -2263930 2235090 2850640 1844200 1073920 -44856.2 -79340.5 
-187097 -135733 427877 622717 1059930 -4539190 -8272020 -142766 -92637.7 
-4964020 676535 -220064 818614 -46028.7 -8128.55 -9586.62 73331.4 56676.1 
-6647230 -12878200 -87547.8 -45626.6 -6743100 -2945860 -212193 3764000 1145640 
-1362640 -1579260 474536 1916060 -1162850 -2006060 -3231530 -2508000 -469570 
-766153 -1404110 7984550 4353900 4743370 -909911 204486 -695523 -119694 
-44560.5 12702900 6556530 6609930 3676590 1991820 -327803 -346367 3380520 
-2890790 -4320860 -4057700 
Stress%20yz%20component 1 111 double
1414780 36148.1 81508.2 2392520 10086.8 -37271.5 -300054 -276643 1839100 
-2015890 -2508270 1305350 696887 -548721 3771360 -160337 2031610 -1558150 
-673033 1586550 4373600 -2986.45 -275565 9378.29 -37660.5 -301505 -548635 
1305180 693690 -160973 -672893 1587200 -3015.43 -169398 -45471.8 -46473.4 
332153 -194996 23067.9 -111720 752138 49167.1 1213750 1189460 22922.8 
569167 22117.3 1046060 -425174 -410380 1027430 -578476 862646 -2260720 
167447 1610170 -355560 645220 -905154 602262 -267463 3056250 1854190 
1805410 1454650 -632599 -619944 1925450 1263490 -1755790 679287 14350.9 
751350 -18060.2 4121440 2175850 2185310 -111914 22535.8 -195802 331934 
22957.8 569512 21924.8 1045680 -578532 1028450 -411407 -424174 -355067 
645205 -907832 -268730 601999 1805290 -619869 -632058 1454290 679355 
14381.1 -18284.1 751260 2185290 290700 -107872 -1371430 -56964.1 -54352.7 
-107499 286494 -55224.4 
Stress%20zz%20component 1 111 double
-499841 -499851 -500984 -500011 601630 60307.5 124639 509895 -499700 
-501200 -499050 -361546 -507548 353350 -499649 168603 -500170 -499807 
301024 -321343 -499852 173626 -1509380 -1603390 -1061220 -1124780 -1352520 
-640674 -492219 -1168000 -1301320 -678639 -1173340 -502023 -583284 -413571 
-226406 102805 -252310 534046 -498791 -499566 -500031 -500046 -161394 
-169727 1170130 1139690 431886 544847 -449420 451594 -500039 -497651 
-499325 -500793 -597079 -225887 -667040 -194716 136640 -500077 -500085 
1118980 -347422 412364 348640 -499968 -500065 -499937 -245889 -573878 
-185199 170763 -499969 -499934 1094840 -1532520 -747369 -1102340 -773592 
-839337 -829855 -2171580 -2139770 -1451440 -547936 -1544280 -1433250 -405231 
-773396 -331893 -1136920 -805411 -2118330 -1348480 -1412600 -652473 -754429 
-425920 -1170800 -814710 -2094540 -524565 -647204 -503576 -501788 592451 
-353246 -478589 -1593420 
Major%20Principal%20Stress 1 111 double
1906237.5653 2142892.9472 3867166.3608 3866913.1763 2310713.3232 106615.29729 142940.11548 3210139.3712 1765634.5478 
2004930.5038 2185596.6576 4149889.877 3603888.4828 3937859.6523 3983676.2631 171337.52611 1784470.6701 1331959.0431 
4165838.137 5182174.5103 4095935.8195 173628.2239 1512840.5265 1019225.2727 11231392.55 11874208.398 936917.86569 
1149456.9855 1248999.9144 13429806.56 25119.287402 1107749.24 14477275.071 1208868.4699 4495861.2589 1088711.9016 
-61710.031694 133640.63897 -194328.87222 2572519.0772 1904483.0326 1880980.0505 3693865.3591 1837320.2872 908775.47548 
1457698.6506 1613794.0856 1628296.3553 3360489.1546 3472169.7638 3593959.6629 4053374.8971 1330165.7545 2070701.0483 
1512679.0516 1768840.4023 2230836.8236 1806715.4146 2104962.1309 104593.08967 145586.91344 3757771.4144 1858737.8682 
1657682.695 4490956.1541 4684007.4593 3610683.9955 1717663.7398 1034418.7637 1588997.5071 1899989.7243 2359085.2029 
231827.76141 170839.01991 3956166.6562 1914972.9673 1664038.0561 1128704.4875 6008684.5146 10947160.686 6269752.2797 
1115859.394 1083161.5383 5228169.674 5661220.1002 828043.60766 1102096.7725 915588.37748 980599.50652 167043.35741 
716520.03698 398967.49023 12153724.304 6566968.9086 6550711.266 -5826.4002525 424872.04688 967485.21235 316058.43773 
-42504.059183 13329425.418 6639655.5745 7130038.5138 3871759.2935 1998284.9529 1138797.915 1369445.5893 3384602.4561 
-89234.181917 901409.91558 419936.60959 
Intermediate%20Principal%20Stress 1 111 double
-238692.28636 -240067.20271 -193691.95596 -185928.06404 659435.03582 -2775118.0708 -3000092.3093 590579.15301 -219982.68906 
-106280.61369 -116762.68537 1567801.0243 1509394.1683 581023.54054 -177606.77367 -3426800.602 -204010.58738 -208676.35605 
955719.18311 1612904.379 -173591.44499 -3687612.4537 -1566422.6565 -1645769.4113 2388479.9249 2627053.9571 -1497442.5602 
-2042728.1828 -1961341.9081 3070715.5528 -1640459.4202 -2087664.1319 3340016.1761 -457967.06759 1612371.5327 -2013305.4017 
-228128.97803 -3509329.7825 -238799.82292 602985.50026 -229740.03302 -218546.00798 -185981.45628 -213462.35629 600104.48154 
227462.01822 -860431.09006 -1002737.7761 572311.48516 624885.14626 1583877.1893 645778.12282 -157743.37606 -104711.29506 
-210505.17184 -223636.36073 47247.761378 266645.50064 22826.670407 -147064.4125 -3737886.7675 -177734.93043 -198179.90169 
-1235301.411 1628210.6227 800513.22108 892465.73494 -202549.85781 -206093.83058 -169363.88875 610202.80915 54863.247276 
-103285.04862 -4109490.3342 -171365.22601 -188422.76996 -1378694.8193 -1581952.9122 -211434.89006 3137342.6225 -301093.8281 
-1313519.3602 -1030634.0027 473404.56915 629761.76052 -1566701.2429 -2029641.7247 -1587897.465 -1523443.6324 -106148.06897 
-1030045.6201 -60107.865848 3382016.1091 -464191.50625 879453.35738 -1628382.8715 -1628555.694 -2081050.1255 -1186759.9279 
-426387.52733 3766696.3435 -600713.16955 1030893.1014 1737959.2044 110385.23124 -202626.23555 -344987.96841 737781.80723 
-360985.32732 -2170501.7062 -1681663.5245 
Minor%20Principal%20Stress 1 111 double
-2496747.2789 -2779887.7445 -4530605.4048 -4498879.1122 -1313838.359 -11558599.726 -12138588.806 -1728443.5243 -2302083.1588 
-2634758.7901 -2905014.9722 -1676596.9013 -1796850.6511 -1124503.1928 -4570452.4895 -13603753.924 -2308132.4828 -1825700.727 
-387152.32011 -1621559.8894 -4662599.8745 -14610079.77 -3676709.87 -2786732.8614 -1104882.4751 -1141942.3552 -4346115.3055 
-4622312.8027 -4279627.0063 -1170502.1127 -4574201.8672 -5599783.1081 -1173341.2472 -1709027.6553 -1681334.7916 -5385169.4999 
-6496486.9903 -11250665.856 -6304892.3049 -1397738.5774 -2524947.9996 -2525388.0426 -4344943.9029 -2447432.9309 -1599356.957 
-1440241.6688 -5591129.9955 -5967778.5792 -1203875.7398 -1078116.9101 -1665566.8521 -965489.01988 -1916555.5785 -2732363.2533 
-2134837.8798 -2342225.0416 -1031446.585 -1053263.9152 -1290733.8014 -6705854.6772 -12379250.146 -4370334.484 -2423100.6665 
-6772861.284 -1522283.7768 -613100.68033 -347825.73047 -2255888.582 -1543305.4832 -2137811.2384 -786650.13349 -574310.35021 
-6740816.7128 -13493925.686 -4538412.2302 -2460578.7974 -7313343.2368 -3025994.5753 -785701.62458 -1131343.3088 -829380.45162 
-1467404.0338 -1955655.5356 -2577028.2431 -2584871.8607 -4484002.3648 -4125871.0478 -4013582.5125 -3779608.8741 -2780896.2884 
-2219131.4169 -2849872.6244 -1145340.4133 -879508.40232 -2608644.6233 -4002431.7283 -5098010.3529 -4921161.0868 -2308091.5098 
-2776248.9135 -1170871.7618 -894664.40498 -2613211.6152 -1561138.4979 -656607.18414 -1854181.0795 -1946194.4209 -628165.26329 
-2901408.4908 -4595047.2093 -4060503.085 
von%20Mises%20Stress 1 111 double
3813516.2223 4263974.5074 7273993.3722 7246155.8594 3143079.9202 10524523.237 11050491.476 4279577.2531 3523077.1719 
4023501.6476 4415287.9932 5056740.4976 4716256.1652 4461204.3046 7408997.5271 12374775.177 3544769.8959 2734880.2965 
4052029.7182 5894584.3855 7585908.2266 13280954.294 4520321.1828 3382995.0916 11013273.039 11600331.437 4579928.3062 
5007875.2704 4808661.7703 13008991.258 4033283.5419 5811051.3903 13952611.262 2535508.9332 5353539.2685 5608169.0081 
6353202.4185 10069805.164 6088449.767 3438379.3559 3836844.2092 3817434.3226 6963211.6977 3711835.4031 2368927.6795 
2519203.828 6340829.3372 6681104.8931 3985109.9523 3981981.574 4596843.3349 4438293.1741 2815003.8506 4165717.2469 
3160443.0072 3560845.4568 2878726.7779 2479259.7658 2965761.2896 6688170.9016 11104640.297 7040319.833 3709132.2677 
7419838.2114 5209605.6187 4750746.5941 3506909.7994 3441840.9485 2232898.2056 3229219.9671 2327314.1339 2674893.2416 
6811273.675 12106086.087 7357495.8184 3790278.3464 7907959.5999 3653385.0171 6526229.796 10609080.934 6850284.3323 
2509861.7055 2697981.2485 6813003.9655 7198870.5701 4607780.439 4557061.0551 4268964.4514 4124324.0335 2821281.6014 
2557583.4381 3045365.3049 11711211.383 7247748.9348 8006990.5113 3481497.6393 4835075.5485 5100781.9604 2280571.2556 
2563452.3576 12768789.772 7391729.3116 8526722.6126 4740966.5091 2366526.4613 2596630.0676 2871986.5255 3533679.0825 
2686626.4048 4771063.9712 3882649.9092 
